%%% static parameters %%%
timespan = 1;
Fact = [4];
Distr1 = [15];
Distr2 = [30];
Clients_N = [300];
Demand_W = [15];
Lt0 = [4];
Lt1 = [4];
SS_ = [0.85];
DS_D = [8];
K = [200];
MA = [500];
%%% dynamic parameters %%%
lost_ratio_sales_ret_th = 0.3559552372878355;
lost_ratio_sales_ret_w = 74;
lost_ratio_sales_dis_th = 0.8839166553520127;
lost_ratio_sales_dis_w = 68;
lost_ratio_sales_fac_th = 0.35776603146530905;
lost_ratio_sales_fac_w = 79;
stock_customer_MA_mean_relative_th = 0.91735498743554;
stock_customer_MA_mean_relative_w = 78;
stock_distributor_MA_mean_relative_th = 0.47736249215256954;
stock_distributor_MA_mean_relative_w = 14;
stock_retailer_MA_mean_relative_th = 0.8796142430373134;
stock_retailer_MA_mean_relative_w = 18;
stock_factory_MA_mean_relative_th = 0.6649592963264987;
stock_factory_MA_mean_relative_w = 3;
